solution status: optimal solution found
objective value:                         12130.019737
x18                                                 1 	(obj:213.053)
x36                                                 1 	(obj:696.403)
x95                                                 1 	(obj:606.277)
x119                                                1 	(obj:271.411)
x148                                                1 	(obj:980.124)
x167                                                1 	(obj:152.404)
x184                                                1 	(obj:582.784)
x202                                                1 	(obj:1054.32)
x214                                                1 	(obj:724.782)
x272                                                1 	(obj:239.034)
x303                                                1 	(obj:55.8187)
x305                                                1 	(obj:0.862637)
x307                                                1 	(obj:629.386)
x334                                                1 	(obj:219.474)
x337                                                1 	(obj:77.8023)
x383                                                1 	(obj:458.685)
x449                                                1 	(obj:311.48)
x452                                                1 	(obj:338.744)
x454                                                1 	(obj:61.8511)
x464                                                1 	(obj:807.127)
x467                                                1 	(obj:100.143)
x472                                                1 	(obj:345.627)
x488                                                1 	(obj:172.37)
x509                                                1 	(obj:33.6956)
x511                                                1 	(obj:243.065)
x537                                                1 	(obj:398.895)
x694                                                1 	(obj:264.997)
x717                                                1 	(obj:34.3012)
x720                                                1 	(obj:719.526)
x834                                                1 	(obj:1048.42)
x869                                                1 	(obj:170.469)
x959                                                1 	(obj:10.6482)
x960                                                1 	(obj:106.04)
